100
100
3000 3000 3000 3000 3000 3000 3000 3000 3000 3000 3000 3000 3000 3000 3000 3000 3000 3000 3000 3000 3000 3000 3000 3000 3000 3000 3000 3000 3000 3000 3000 3000 3000 3000 3000 3000 3000 3000 3000 3000 3000 3000 3000 3000 3000 3000 3000 3000 3000 3000 3000 3000 3000 3000 3000 3000 3000 3000 3000 3000 3000 3000 3000 3000 3000 3000 3000 3000 3000 3000 3000 3000 3000 3000 3000 3000 3000 3000 3000 3000 3000 3000 3000 3000 3000 3000 3000 3000 3000 3000 3000 3000 3000 3000 3000 3000 3000 3000 3000 3000
0 11 3
0 19 3
0 21 2
0 29 0
0 41 3
0 59 3
0 60 3
0 66 0
0 74 4
0 86 2
1 3 3
1 18 3
1 30 1
1 33 2
1 56 4
1 60 0
1 78 2
1 81 0
1 82 0
1 83 4
2 2 2
2 21 0
2 24 4
2 35 2
2 37 3
2 39 4
2 44 1
2 68 2
2 85 2
2 89 1
3 8 3
3 13 1
3 17 1
3 19 0
3 22 3
3 41 1
3 46 2
3 50 3
3 65 0
3 71 0
4 2 1
4 4 0
4 7 4
4 15 4
4 27 2
4 35 1
4 48 3
4 49 3
4 59 3
4 64 3
5 15 1
5 18 3
5 27 3
5 34 4
5 35 3
5 42 3
5 45 2
5 49 0
5 72 3
5 73 3
6 11 0
6 26 1
6 36 4
6 40 2
6 67 4
6 88 3
6 89 3
6 91 0
6 93 1
6 94 1
7 22 2
7 52 2
7 71 0
7 85 1
7 94 1
7 95 0
7 96 4
7 97 0
7 98 0
7 99 0
8 0 0
8 3 1
8 20 4
8 37 0
8 39 3
8 40 3
8 42 0
8 47 1
8 50 3
8 51 3
9 1 4
9 9 2
9 14 0
9 15 1
9 20 4
9 32 3
9 38 4
9 50 4
9 54 2
9 58 3
10 16 0
10 23 1
10 27 3
10 38 2
10 55 2
10 58 1
10 61 1
10 62 1
10 78 1
10 80 1
11 3 1
11 10 0
11 12 3
11 23 3
11 28 3
11 34 3
11 38 4
11 57 1
11 62 4
11 67 0
12 3 1
12 14 4
12 48 4
12 70 0
12 79 2
12 91 3
12 96 3
12 97 2
12 98 4
12 99 2
13 0 0
13 10 3
13 16 0
13 25 0
13 30 4
13 43 0
13 53 0
13 54 1
13 67 3
13 71 1
14 7 1
14 8 0
14 11 4
14 26 1
14 42 4
14 66 1
14 69 2
14 81 2
14 85 4
14 88 0
15 17 0
15 29 1
15 32 1
15 49 4
15 51 1
15 77 1
15 83 2
15 88 3
15 89 2
15 90 3
16 15 1
16 22 1
16 29 4
16 30 0
16 35 0
16 41 1
16 55 2
16 57 3
16 64 0
16 71 1
17 44 3
17 45 4
17 47 4
17 51 4
17 56 4
17 69 0
17 72 3
17 73 0
17 80 4
17 89 0
18 11 3
18 17 2
18 30 3
18 33 1
18 38 0
18 50 1
18 51 2
18 56 2
18 59 3
18 76 2
19 5 0
19 12 4
19 20 1
19 27 0
19 47 2
19 58 3
19 67 3
19 74 4
19 77 1
19 82 1
20 1 0
20 7 3
20 12 0
20 18 2
20 26 3
20 28 4
20 39 0
20 56 2
20 62 3
20 63 3
21 12 1
21 24 2
21 25 2
21 36 2
21 42 2
21 43 2
21 48 1
21 67 4
21 76 3
21 83 0
22 9 2
22 30 4
22 40 4
22 46 1
22 47 3
22 85 3
22 92 3
22 93 4
22 95 0
22 96 0
23 21 0
23 28 0
23 29 3
23 48 4
23 59 2
23 60 3
23 71 1
23 73 2
23 78 4
23 81 0
24 2 2
24 3 3
24 10 0
24 16 1
24 50 3
24 51 3
24 63 3
24 66 1
24 72 4
24 74 1
25 2 1
25 3 1
25 9 2
25 14 0
25 22 3
25 31 3
25 41 0
25 53 2
25 61 3
25 65 1
26 0 1
26 2 3
26 6 4
26 9 2
26 20 0
26 26 2
26 32 2
26 41 4
26 70 0
26 72 3
27 2 2
27 13 3
27 28 0
27 31 4
27 34 0
27 36 0
27 39 1
27 52 4
27 54 3
27 60 2
28 3 3
28 4 0
28 22 2
28 28 3
28 29 1
28 38 1
28 50 3
28 54 4
28 72 0
28 85 2
29 3 4
29 8 1
29 23 3
29 41 4
29 60 1
29 81 0
29 83 1
29 90 1
29 91 2
29 92 0
30 13 1
30 33 0
30 37 4
30 38 0
30 47 3
30 62 0
30 63 3
30 67 3
30 75 1
30 77 3
31 2 3
31 16 3
31 36 1
31 46 3
31 74 3
31 75 3
31 79 4
31 80 1
31 83 3
31 84 1
32 5 4
32 7 1
32 11 1
32 33 2
32 48 4
32 59 0
32 70 4
32 91 0
32 94 0
32 97 2
33 9 4
33 15 3
33 35 1
33 46 0
33 47 0
33 48 1
33 61 3
33 69 0
33 82 4
33 93 1
34 0 1
34 5 4
34 8 2
34 16 4
34 17 2
34 18 3
34 50 2
34 64 1
34 70 1
34 88 3
35 3 2
35 5 2
35 13 3
35 52 3
35 55 4
35 62 1
35 64 2
35 69 2
35 75 2
35 84 2
36 20 4
36 23 0
36 32 2
36 34 3
36 50 0
36 52 4
36 68 1
36 71 1
36 76 2
36 82 3
37 19 0
37 22 2
37 29 1
37 40 1
37 42 3
37 53 2
37 58 0
37 60 3
37 85 1
37 87 0
38 4 1
38 5 2
38 26 1
38 33 0
38 40 3
38 45 1
38 59 4
38 69 3
38 70 4
38 73 2
39 12 1
39 13 1
39 18 1
39 23 3
39 32 0
39 38 2
39 44 3
39 74 4
39 83 4
39 88 3
40 6 2
40 12 0
40 13 4
40 14 4
40 23 0
40 25 3
40 33 2
40 34 3
40 53 1
40 61 2
41 2 3
41 12 4
41 17 0
41 43 3
41 44 0
41 59 4
41 67 2
41 77 1
41 80 2
41 89 3
42 10 2
42 21 0
42 24 0
42 27 3
42 30 3
42 32 3
42 36 4
42 57 4
42 72 1
42 86 3
43 0 1
43 17 1
43 48 4
43 63 2
43 70 4
43 73 3
43 91 2
43 94 3
43 98 0
43 99 0
44 10 2
44 44 3
44 48 1
44 75 1
44 88 1
44 89 3
44 94 4
44 96 3
44 97 4
44 99 3
45 4 1
45 6 4
45 14 1
45 19 3
45 22 3
45 36 1
45 41 3
45 63 2
45 75 2
45 82 1
46 21 3
46 22 3
46 29 1
46 42 0
46 43 2
46 46 4
46 52 1
46 55 1
46 64 4
46 81 0
47 6 1
47 24 3
47 41 4
47 45 1
47 53 4
47 61 1
47 63 2
47 65 2
47 77 1
47 78 2
48 4 3
48 19 2
48 24 1
48 31 0
48 38 2
48 39 3
48 58 4
48 68 1
48 80 1
48 81 2
49 1 1
49 6 1
49 11 4
49 49 4
49 59 2
49 62 0
49 64 4
49 65 0
49 66 3
49 75 0
50 10 0
50 25 1
50 31 3
50 41 4
50 69 2
50 71 3
50 79 4
50 83 1
50 91 1
50 95 3
51 10 4
51 12 4
51 14 0
51 27 4
51 28 0
51 47 3
51 50 2
51 80 1
51 86 2
51 87 0
52 4 4
52 10 3
52 25 1
52 45 1
52 49 2
52 55 1
52 65 3
52 75 3
52 79 0
52 81 2
53 5 3
53 23 4
53 34 1
53 43 0
53 55 4
53 64 0
53 66 1
53 74 0
53 75 4
53 87 1
54 5 4
54 43 1
54 47 3
54 66 4
54 80 3
54 84 3
54 86 1
54 89 2
54 91 1
54 92 2
55 20 3
55 30 2
55 38 4
55 42 2
55 55 4
55 57 2
55 68 3
55 73 4
55 76 3
55 81 1
56 18 3
56 31 1
56 37 0
56 51 2
56 61 3
56 72 4
56 76 0
56 79 2
56 84 0
56 90 4
57 45 0
57 47 3
57 51 0
57 53 2
57 57 4
57 60 3
57 74 1
57 82 3
57 84 1
57 86 1
58 1 2
58 14 2
58 15 3
58 26 0
58 27 1
58 28 1
58 34 1
58 48 4
58 61 4
58 63 1
59 3 1
59 14 3
59 39 3
59 46 3
59 51 2
59 56 0
59 57 3
59 63 2
59 66 3
59 70 3
60 17 2
60 37 1
60 40 2
60 48 1
60 54 1
60 62 1
60 67 0
60 76 4
60 78 2
60 85 3
61 0 3
61 1 2
61 5 2
61 7 4
61 9 0
61 11 1
61 13 2
61 34 1
61 36 3
61 43 2
62 9 4
62 13 1
62 16 2
62 21 4
62 36 3
62 53 3
62 54 0
62 68 2
62 74 3
62 90 0
63 14 2
63 19 4
63 21 2
63 27 3
63 31 1
63 57 2
63 72 2
63 91 4
63 93 2
63 94 3
64 4 3
64 25 3
64 31 1
64 32 2
64 40 2
64 43 2
64 44 2
64 66 0
64 76 2
64 77 1
65 1 4
65 9 2
65 45 2
65 53 1
65 58 3
65 75 1
65 91 4
65 93 3
65 95 1
65 97 0
66 4 4
66 6 3
66 16 2
66 22 3
66 31 0
66 45 3
66 56 3
66 58 1
66 59 1
66 82 2
67 8 2
67 15 4
67 33 3
67 55 1
67 75 1
67 78 4
67 87 0
67 89 3
67 90 0
67 91 3
68 4 1
68 7 1
68 24 0
68 65 3
68 66 3
68 70 4
68 78 0
68 82 2
68 87 4
68 90 1
69 0 0
69 1 3
69 6 3
69 38 2
69 58 4
69 60 3
69 72 3
69 84 2
69 85 3
69 88 1
70 2 4
70 15 3
70 19 3
70 30 0
70 39 1
70 40 1
70 42 4
70 46 0
70 51 4
70 52 0
71 9 1
71 43 1
71 57 2
71 86 1
71 88 4
71 89 3
71 90 3
71 92 1
71 93 4
71 96 1
72 8 2
72 9 1
72 25 2
72 33 4
72 39 1
72 45 0
72 54 3
72 72 3
72 73 0
72 87 3
73 28 4
73 58 1
73 73 2
73 76 3
73 79 2
73 87 1
73 92 1
73 94 0
73 96 2
73 98 0
74 18 4
74 20 0
74 35 1
74 53 0
74 61 4
74 63 2
74 70 2
74 79 0
74 84 2
74 87 2
75 0 0
75 21 3
75 24 3
75 36 0
75 37 0
75 56 0
75 67 2
75 70 0
75 71 3
75 88 3
76 5 3
76 26 0
76 28 1
76 29 0
76 32 1
76 46 2
76 60 4
76 82 0
76 83 4
76 92 4
77 6 2
77 17 2
77 24 0
77 54 4
77 56 1
77 64 0
77 77 1
77 86 3
77 95 4
77 98 3
78 7 1
78 16 4
78 23 1
78 47 1
78 69 3
78 78 2
78 96 0
78 97 2
78 98 3
78 99 2
79 4 2
79 8 4
79 35 2
79 45 0
79 52 2
79 62 0
79 77 3
79 78 1
79 80 1
79 84 4
80 16 2
80 24 1
80 25 4
80 29 4
80 30 0
80 33 3
80 35 3
80 37 4
80 39 0
80 64 3
81 11 4
81 13 2
81 49 4
81 92 2
81 94 2
81 95 4
81 96 2
81 97 4
81 98 3
81 99 3
82 1 4
82 15 3
82 25 3
82 53 3
82 56 2
82 59 0
82 61 3
82 71 2
82 77 2
82 86 2
83 0 2
83 12 0
83 17 2
83 32 3
83 50 3
83 56 2
83 65 4
83 86 4
83 96 4
83 99 4
84 7 3
84 41 3
84 44 0
84 46 0
84 65 4
84 68 1
84 74 1
84 76 2
84 83 1
84 85 1
85 8 1
85 11 0
85 12 4
85 21 1
85 31 2
85 35 2
85 40 3
85 49 4
85 58 3
85 64 3
86 18 0
86 26 0
86 27 0
86 52 1
86 55 0
86 66 0
86 68 0
86 81 3
86 87 1
86 95 3
87 13 0
87 16 4
87 20 1
87 39 3
87 44 4
87 93 1
87 96 0
87 97 1
87 98 1
87 99 2
88 8 1
88 18 3
88 19 3
88 23 0
88 29 1
88 37 0
88 57 2
88 68 2
88 69 0
88 78 4
89 5 1
89 7 0
89 15 4
89 19 1
89 30 2
89 40 0
89 49 0
89 55 1
89 68 3
89 79 1
90 14 3
90 24 1
90 25 2
90 42 0
90 44 3
90 90 4
90 92 2
90 95 3
90 97 0
90 99 0
91 0 1
91 7 2
91 10 0
91 11 2
91 22 0
91 27 0
91 32 1
91 35 2
91 37 4
91 42 0
92 1 2
92 6 2
92 10 3
92 23 3
92 31 1
92 36 0
92 46 1
92 68 2
92 73 0
92 77 4
93 1 4
93 20 3
93 34 4
93 74 2
93 82 2
93 90 0
93 92 3
93 93 1
93 94 2
93 95 1
94 17 2
94 19 3
94 21 1
94 26 3
94 33 4
94 37 0
94 43 0
94 44 4
94 51 3
94 62 0
95 18 1
95 20 3
95 54 1
95 62 1
95 85 1
95 86 2
95 90 3
95 92 2
95 93 3
95 95 1
96 2 3
96 6 0
96 26 4
96 69 3
96 81 4
96 84 4
96 87 0
96 89 0
96 94 0
96 98 3
97 8 4
97 52 4
97 54 4
97 60 4
97 63 4
97 65 0
97 76 2
97 79 2
97 80 4
97 84 0
98 28 3
98 49 1
98 57 0
98 65 4
98 67 1
98 83 1
98 93 4
98 97 0
98 98 4
98 99 1
99 34 3
99 49 4
99 52 4
99 61 1
99 69 1
99 71 4
99 73 0
99 79 1
99 80 4
99 88 0
